
Gurobi 8.1.1 (win64, Python) logging started 10/23/19 10:27:45

Academic license - for non-commercial use only

Gurobi 8.1.1 (win64, Python) logging started 10/23/19 10:29:35

Academic license - for non-commercial use only

Gurobi 8.1.1 (win64, Python) logging started 10/23/19 11:54:35

Academic license - for non-commercial use only

Gurobi 8.1.1 (win64, Python) logging started 10/23/19 11:56:18

Academic license - for non-commercial use only

Gurobi 8.1.1 (win64, Python) logging started 10/23/19 12:08:20

Academic license - for non-commercial use only

Gurobi 8.1.1 (win64, Python) logging started 10/23/19 12:10:19

Academic license - for non-commercial use only

Gurobi 8.1.1 (win64, Python) logging started 10/23/19 12:20:56

Academic license - for non-commercial use only

Gurobi 8.1.1 (win64, Python) logging started 10/23/19 12:34:20

Academic license - for non-commercial use only

Gurobi 8.1.1 (win64, Python) logging started 10/23/19 12:35:51

Academic license - for non-commercial use only

Gurobi 8.1.1 (win64, Python) logging started 10/23/19 12:38:42

Academic license - for non-commercial use only

Gurobi 8.1.1 (win64, Python) logging started 10/23/19 12:44:56

Academic license - for non-commercial use only

Gurobi 8.1.1 (win64, Python) logging started 10/23/19 13:07:52

Academic license - for non-commercial use only

Gurobi 8.1.1 (win64, Python) logging started 10/24/19 09:30:59

Academic license - for non-commercial use only

Gurobi 8.1.1 (win64, Python) logging started 10/24/19 10:07:45

Academic license - for non-commercial use only

Gurobi 8.1.1 (win64, Python) logging started 10/24/19 10:12:15

Academic license - for non-commercial use only

Gurobi 8.1.1 (win64, Python) logging started 10/24/19 11:02:26

Academic license - for non-commercial use only
